 &control
    calculation='scf',
    pseudo_dir='/u/home/n/nbriana/qe-7.3.1/XSpectra/test/pseudo/',
    outdir='/u/home/n/nbriana/qe-7.3.1/XSpectra/test/results/tmp/',
    prefix='aC5',
 /
 &system
    ibrav=0,
    nat=216.0,
    ntyp=2,
    ecutwfc=30,
 /
 &electrons
 /
ATOMIC_SPECIES
C 12.011 C.UPF
C_h 12.011 C.UPF
ATOMIC_POSITIONS crystal
C_h 0.440194011 0.931740999 0.278789014
C 0.043250501 0.217368007 0.232141003
C 0.317856014 0.232868001 0.172588006
C 0.260865003 0.128270999 0.204760998
C 0.209114999 0.042160999 0.145655006
C 0.457773 0.145643994 0.036450401
C 0.156885996 0.010038 0.050670002
C 0.505591989 0.096955903 0.140842006
C 0.413708001 0.018606801 0.47508499
C 0.0165163 0.211593002 0.407604992
C 0.144574001 0.069307998 0.364710003
C 0.246574 0.138517007 0.325875014
C 0.399897009 0.238840997 0.270637006
C 0.317550004 0.223488003 0.369922996
C 0.037234701 0.118856996 0.31568101
C 0.481415004 0.134525001 0.259976
C 0.118422002 0.061319899 0.489396989
C 0.436865985 0.112424001 0.717279017
C 0.181774005 0.188960001 0.695290029
C 0.341024995 0.055243101 0.659739017
C 0.062719703 0.204274997 0.722733974
C 0.220703006 0.063847199 0.706511974
C 0.332634002 0.00967609 0.55706197
C 0.458068997 0.238642007 0.710741997
C 0.00324226 0.182710007 0.618215024
C 0.074194998 0.194279999 0.513602018
C 0.408820003 0.128511995 0.84455198
C 0.17024 0.0283836 0.816257
C 0.106340997 0.096459202 0.882977009
C 0.442149997 0.059562899 0.949491978
C 0.061256301 0.202518001 0.84145999
C 0.385883987 0.237313002 0.879553974
C 0.069960102 0.0422474 0.983641028
C 0.315174997 0.27946201 0.071608901
C 0.105720997 0.292962015 0.038249899
C 0.215469003 0.333765 0.0196706
C 0.066460401 0.240061 0.126420006
C 0.291503996 0.286395013 0.459405005
C 0.223645002 0.457957 0.459394008
C 0.494594991 0.469182998 0.423613995
C 0.496816993 0.318098992 0.278385013
C 0.216856003 0.280281991 0.632582009
C 0.435882002 0.45807901 0.525232017
C 0.290695995 0.372801006 0.633953989
C 0.168935999 0.28372699 0.519382
C 0.323092997 0.396461993 0.518646002
C 0.0262189 0.465377986 0.513274014
C 0.129804999 0.408241987 0.503813982
C 0.338149011 0.403856009 0.736766994
C 0.035455901 0.40535 0.875562012
C 0.227565005 0.433369011 0.954427004
C 0.382577002 0.299425989 0.777513981
C 0.0299422 0.28599301 0.931086004
C 0.124430999 0.483188003 0.910377026
C 0.495332986 0.365765989 0.986127973
C 0.412853003 0.261314988 0.000540018
C 0.245842993 0.645033002 0.218243003
C 0.444602996 0.733609974 0.090275899
C 0.236946002 0.739638984 0.154752001
C 0.488997012 0.590129018 0.403688014
C 0.172736004 0.616967022 0.317070007
C 0.0911199 0.679767013 0.372263014
C 0.406323999 0.644747972 0.338901997
C 0.321648985 0.576770008 0.287604988
C 0.239443004 0.528712988 0.366109997
C 0.386642992 0.638082027 0.649519026
C 0.452820987 0.550722003 0.59375
C 0.083543196 0.738309026 0.570654988
C 0.30596301 0.685867012 0.85541898
C 0.356671005 0.611763 0.944944024
C 0.00718285 0.630468011 0.934364974
C 0.188978001 0.703531981 0.893815994
C 0.122132003 0.610688984 0.914453983
C 0.316682994 0.506399989 0.916854024
C 0.329641014 0.606895983 0.752186
C 0.332971007 0.50265801 0.799332023
C 0.463196009 0.657387018 0.995436013
C 0.181099996 0.883975983 0.0277586
C 0.326072007 0.776920974 0.092253298
C 0.019114301 0.849045992 0.184563994
C 0.155047998 0.837085009 0.148301005
C 0.217837006 0.937538981 0.223447993
C 0.310369015 0.877843022 0.032334998
C 0.095413297 0.77987498 0.446103007
C 0.298429996 0.829963982 0.357331991
C 0.188828006 0.876286983 0.418072999
C 0.149857 0.951623023 0.324965
C 0.324133992 0.914156973 0.283414006
C 0.029424399 0.914716005 0.294876009
C 0.460572988 0.960300982 0.391452014
C 0.490868002 0.813499987 0.278618008
C 0.391353995 0.75899601 0.33860901
C 0.105008997 0.775911987 0.677038014
C 0.182557002 0.959936976 0.641014993
C 0.330347002 0.81032902 0.692165017
C 0.205422997 0.854615986 0.708090007
C 0.210251004 0.970233977 0.522103012
C 0.409960985 0.757004023 0.620696008
C 0.135958001 0.829110026 0.917325974
C 0.0181929 0.862957001 0.90742898
C 0.203715995 0.90515399 0.828253984
C 0.319655001 0.896888971 0.864185989
C 0.363669991 0.801549971 0.81159699
C 0.361429006 0.960080028 0.962768018
C 0.485956013 0.808453023 0.844742
C 0.796545029 0.212883994 0.160527006
C 0.911925018 0.015855599 0.175205007
C 0.687156022 0.2333 0.218198001
C 0.818705022 0.099935301 0.183635995
C 0.920723021 0.235585004 0.993803442
C 0.530146003 0.062015101 0.459540993
C 0.561284006 0.117835999 0.349029005
C 0.977819979 0.0199141 0.264723003
C 0.66386801 0.138249993 0.288843989
C 0.729591012 0.041779902 0.253102005
C 0.929822981 0.0900677 0.59235698
C 0.996107996 0.018366899 0.52481699
C 0.718298018 0.039685499 0.535467982
C 0.764006019 0.202704996 0.664040029
C 0.814752996 0.077338502 0.625958025
C 0.565801024 0.0665088 0.687731028
C 0.603280008 0.059093501 0.559046984
C 0.648341 0.169125006 0.728030026
C 0.711436987 0.121366002 0.82060802
C 0.87214601 0.137367994 0.936567008
C 0.801162004 0.188356996 0.848874986
C 0.550715029 0.014413 0.905600011
C 0.880051017 0.020408601 0.932992995
C 0.534340978 0.45046401 0.068308003
C 0.868538022 0.285241991 0.092455298
C 0.934333026 0.456925005 0.222104996
C 0.879662991 0.415796995 0.118666999
C 0.603031993 0.437833995 0.163212001
C 0.602046013 0.319151014 0.207782999
C 0.837082982 0.501448989 0.049503401
C 0.540350974 0.374029994 0.364405006
C 0.717302024 0.469253004 0.387874991
C 0.996674001 0.480439007 0.403892994
C 0.969066024 0.401097 0.321274012
C 0.661888003 0.363303989 0.407730997
C 0.705995023 0.29260999 0.481115997
C 0.997900009 0.28996399 0.320870996
C 0.896224022 0.346738994 0.724391997
C 0.829675972 0.490943998 0.580402017
C 0.849514008 0.370694995 0.613485992
C 0.769815028 0.295246989 0.575818002
C 0.568534017 0.270148009 0.726466
C 0.602789998 0.375324011 0.78530699
C 0.976822019 0.423242003 0.774176002
C 0.717634022 0.505522013 0.867918015
C 0.834303021 0.249626994 0.755194008
C 0.55261898 0.411498994 0.887962997
C 0.697520018 0.456037998 0.765739977
C 0.842082024 0.722103 0.0145721
C 0.643658996 0.538607001 0.195683002
C 0.65339601 0.618201971 0.100906
C 0.95590502 0.663923025 0.029780099
C 0.776502013 0.607228994 0.0501821
C 0.951663971 0.658415973 0.156854004
C 0.556573987 0.562713027 0.021372801
C 0.955878973 0.570334971 0.238015994
C 0.639465988 0.74770999 0.120814003
C 0.764545977 0.654501975 0.33209601
C 0.810222983 0.625249028 0.437445015
C 0.993485987 0.599967003 0.359252989
C 0.556373 0.651970029 0.476826996
C 0.704109013 0.556600988 0.295857996
C 0.916263998 0.676750004 0.449979007
C 0.785223007 0.520173013 0.46942699
C 0.666571021 0.607493997 0.654784977
C 0.613460004 0.677977979 0.729411006
C 0.579286993 0.583656013 0.569055021
C 0.971170008 0.670758009 0.562098026
C 0.970166981 0.544852018 0.607667029
C 0.98881799 0.533676028 0.726517975
C 0.745033979 0.515872002 0.668487012
C 0.90445298 0.747098029 0.641241014
C 0.983618975 0.752399027 0.738991022
C 0.842176974 0.626187027 0.852325022
C 0.81062597 0.737594008 0.896896005
C 0.573934019 0.64043498 0.833398998
C 0.511228979 0.708537996 0.898388028
C 0.811336994 0.539376974 0.933400989
C 0.594645023 0.53094101 0.899977982
C 0.962108016 0.629808009 0.803945005
C 0.939562976 0.913300991 0.104745999
C 0.847078979 0.817983985 0.101600997
C 0.672897995 0.938790023 0.183928996
C 0.719816983 0.856959999 0.101364002
C 0.905062973 0.764732003 0.199412003
C 0.527880013 0.766318023 0.160543993
C 0.611670971 0.984951973 0.00167487
C 0.588424981 0.004809976 0.118130997
C 0.887525022 0.783640027 0.405030012
C 0.951783001 0.921696007 0.488375992
C 0.702108026 0.859450996 0.297423005
C 0.755246997 0.958064973 0.458710015
C 0.738255024 0.965470016 0.345616996
C 0.596487999 0.812363982 0.355668008
C 0.580902994 0.77038002 0.464022994
C 0.995377004 0.848743975 0.401881009
C 0.813221991 0.767279029 0.302832007
C 0.840772986 0.86619103 0.495395005
C 0.716515005 0.856723011 0.654036999
C 0.811955988 0.806994975 0.604026973
C 0.766889989 0.966032028 0.692947984
C 0.609085023 0.798644006 0.67850101
C 0.524224997 0.796934009 0.574904978
C 0.787603021 0.943874002 0.901381016
C 0.947504997 0.832503021 0.82703501
C 0.832880974 0.838164985 0.848912001
C 0.562812984 0.863184988 0.778587997
C 0.597119987 0.979622006 0.792195022
C 0.705114007 0.919241011 0.993489027
C 0.975207984 0.959136009 0.979297996
C 0.722561002 0.003479958 0.802836001
K_POINTS gamma
CELL_PARAMETERS angstrom
11.9985733032 0.0 0.0
0.0 11.9985733032 0.0
0.0 0.0 11.9985733032
