 &control
    calculation='scf',
    pseudo_dir='/u/home/n/nbriana/qe-7.3.1/XSpectra/test/pseudo/',
    outdir='/u/home/n/nbriana/qe-7.3.1/XSpectra/test/results/tmp/',
    prefix='aC2',
 /
 &system
    ibrav=0,
    nat=216.0,
    tot_charge=1,
    ntyp=2,
    ecutwfc=20,
 /
 &electrons
    scf_must_converge=.false.,
/
ATOMIC_SPECIES
C 12.011 C_PBE_TM_2pj.UPF
C_h 12.011 Ch_PBE_TM_2pj.UPF
ATOMIC_POSITIONS crystal
C_h 0.049439602 0.640542984 0.524866998
C 0.122135997 0.121351004 0.0407212
C 0.453666002 0.042244099 0.128212005
C 0.098724402 0.175037995 0.120122001
C 0.00482995 0.158206001 0.147636995
C 0.371230006 0.00732292 0.119354002
C 0.388967007 0.090774797 0.338256001
C 0.367852986 0.186357006 0.301039994
C 0.49249199 0.093118303 0.334500015
C 0.444335014 0.222650006 0.251906991
C 0.284476012 0.252873003 0.321455985
C 0.438809991 0.165472999 0.554048002
C 0.321079999 0.042323601 0.575393021
C 0.412165999 0.074420698 0.53995198
C 0.242970005 0.203721002 0.593276978
C 0.255135 0.103334002 0.611904025
C 0.170590997 0.060571499 0.619629979
C 0.101135999 0.0153933 0.57684499
C 0.0150272 0.178130001 0.736006975
C 0.00243446 0.0575408 0.594618022
C 0.451671004 0.242213994 0.596657991
C 0.097943403 0.082280204 0.967436016
C 0.375786006 0.177864999 0.881838977
C 0.048473701 0.088586099 0.882601976
C 0.372521013 0.089307502 0.898193002
C 0.126201004 0.240097001 0.845844984
C 0.059966501 0.170352995 0.825344026
C 0.356258988 0.999418139 0.864960015
C 0.220112994 0.309024006 0.156684995
C 0.057554401 0.493959993 0.170633003
C 0.324573994 0.401769996 0.041992299
C 0.045754299 0.313508987 0.187921003
C 0.016657701 0.409640998 0.205999002
C 0.278201014 0.343472004 0.092731498
C 0.129191995 0.270193994 0.152235001
C 0.184240997 0.49554199 0.286062986
C 0.250459999 0.328969002 0.261258006
C 0.230666995 0.419243991 0.281646013
C 0.254794002 0.250595987 0.412993014
C 0.156923994 0.46212101 0.645769
C 0.246461004 0.300276011 0.598140001
C 0.458599001 0.274690002 0.679458022
C 0.232632995 0.386898994 0.652449012
C 0.040914301 0.333359987 0.654211998
C 0.069167301 0.423285007 0.670184016
C 0.277247012 0.366964012 0.733218014
C 0.236191005 0.25525701 0.502622008
C 0.289095998 0.314289987 0.81230998
C 0.457424998 0.287975013 0.775241017
C 0.359829992 0.479057014 0.00485003
C 0.373921007 0.262914002 0.835753977
C 0.201359004 0.285335988 0.843477011
C 0.119078003 0.544721007 0.232142001
C 0.368795991 0.693885028 0.224105
C 0.0470852 0.646722019 0.122524999
C 0.098958299 0.647476017 0.211528003
C 0.0213733 0.719654024 0.0617388
C 0.034209199 0.546283007 0.089196302
C 0.309320003 0.743763983 0.0610152
C 0.372711003 0.57823199 0.458815992
C 0.317297012 0.657266021 0.303063005
C 0.140662 0.717085004 0.273005009
C 0.384045005 0.600089014 0.365444005
C 0.476705998 0.607252002 0.313006997
C 0.230560005 0.708096981 0.326781988
C 0.461196005 0.697964013 0.266474009
C 0.097387403 0.609763026 0.604202986
C 0.349014997 0.577327013 0.643549025
C 0.369017005 0.562481999 0.547819972
C 0.278385013 0.686565995 0.735504985
C 0.174456999 0.562638998 0.640313983
C 0.253719985 0.617964029 0.66683197
C 0.0287966 0.685450971 0.61084801
C 0.390083998 0.571171999 0.737329006
C 0.065550901 0.642970979 0.891909003
C 0.348127007 0.638557017 0.910453975
C 0.119120002 0.709921002 0.863474011
C 0.36697799 0.557030976 0.964169025
C 0.340440005 0.626085997 0.804141998
C 0.30775699 0.711986005 0.965031028
C 0.024463899 0.550336003 0.90387702
C 0.00183615 0.504804015 0.819283009
C 0.211691007 0.909770012 0.090680398
C 0.293891013 0.965058982 0.096701697
C 0.461167991 0.793038011 0.116550997
C 0.0408631 0.933488011 0.179332003
C 0.140417993 0.93374002 0.160225004
C 0.236074999 0.822421014 0.038698599
C 0.196061 0.967347026 0.236009002
C 0.501357019 0.803138018 0.029790999
C 0.371802002 0.73624903 0.139234006
C 0.051220998 0.870787978 0.346231014
C 0.121949002 0.802753985 0.333238989
C 0.260948986 0.860906005 0.434017986
C 0.215905994 0.79489398 0.376531005
C 0.353469998 0.923532009 0.417921007
C 0.0437782 0.917117 0.441583008
C 0.477753013 0.790023983 0.292851001
C 0.435550004 0.904874027 0.493512988
C 0.998655796 0.913488984 0.263624996
C 0.254911989 0.992977977 0.297455996
C 0.334735006 0.003790021 0.358987004
C 0.470120996 0.007650018 0.487327993
C 0.296730012 0.94391799 0.573056996
C 0.382907003 0.882842004 0.579852998
C 0.405001998 0.853888988 0.678812981
C 0.498308003 0.838899016 0.710271001
C 0.119447999 0.943476975 0.50464499
C 0.218290001 0.908250988 0.509068012
C 0.256891996 0.782971025 0.769527018
C 0.33990401 0.925185978 0.819746971
C 0.242529005 0.785848022 0.943681002
C 0.195079997 0.775020003 0.851994991
C 0.329914987 0.852594972 0.758234978
C 0.577189982 0.160864994 0.171944007
C 0.648981988 0.221341997 0.132710993
C 0.833742976 0.175235003 0.042020801
C 0.856260002 0.0905656 0.064594902
C 0.539958 0.082104601 0.113361999
C 0.950516999 0.0789501 0.113837004
C 0.59265399 0.042533301 0.039448801
C 0.968015015 0.242960006 0.193715006
C 0.81477201 0.195942998 0.312828988
C 0.861086011 0.021368301 0.288417011
C 0.824297011 0.101544999 0.29540199
C 0.523015976 0.164933994 0.263572991
C 0.520765007 0.049125198 0.415235996
C 0.759669006 0.237216994 0.377866
C 0.876758993 0.253524005 0.253084987
C 0.996057987 0.142438993 0.646308005
C 0.754445016 0.109540001 0.705009997
C 0.928723991 0.00909045 0.548986971
C 0.790180981 0.072806403 0.629392028
C 0.826174021 0.0128443 0.56229502
C 0.015349984 0.246683002 0.659162998
C 0.68214798 0.160016 0.760520995
C 0.706185997 0.073210903 0.792285025
C 0.977595985 0.016418001 0.862643003
C 0.637172997 0.241050005 0.780755997
C 0.866267025 0.273649991 0.158418998
C 0.930123985 0.426054001 0.006841
C 0.816165984 0.275159001 0.069519997
C 0.872295976 0.35869801 0.023027699
C 0.716772974 0.266314 0.097751103
C 0.668026984 0.354712009 0.475962013
C 0.939131975 0.448606014 0.371325999
C 0.707544982 0.288571 0.426907003
C 0.967399001 0.422163993 0.290093988
C 0.90220499 0.493140012 0.440409005
C 0.988941014 0.475264013 0.729833007
C 0.633458018 0.434123009 0.505438983
C 0.906916022 0.508108974 0.683247983
C 0.556339025 0.288993001 0.802779019
C 0.639205992 0.339186996 0.784026027
C 0.680978 0.419835001 0.76849401
C 0.737504005 0.492502987 0.765595973
C 0.62233299 0.612340987 0.144114003
C 0.612816989 0.571959019 0.225021005
C 0.629876971 0.688607991 0.084434897
C 0.994651973 0.508341014 0.00275143
C 0.756853998 0.687243998 0.428548008
C 0.554355025 0.551859975 0.29807201
C 0.796621025 0.622259021 0.477883995
C 0.726062 0.745671988 0.356718004
C 0.596899986 0.513117015 0.530873001
C 0.560899019 0.689970016 0.535735011
C 0.847329021 0.517401993 0.602840006
C 0.805979013 0.509077013 0.692915976
C 0.562551975 0.598743021 0.535134971
C 0.963741004 0.733301997 0.663412988
C 0.851660013 0.543955028 0.505488992
C 0.751222014 0.629332006 0.900672972
C 0.69352299 0.711453974 0.913776994
C 0.759931982 0.541875005 0.855795979
C 0.618807971 0.712630987 0.984264016
C 0.832983971 0.573135972 0.912772
C 0.782094002 0.792949975 0.141784996
C 0.919188023 0.944793999 0.0426801
C 0.831030011 0.760470986 0.216359004
C 0.828831017 0.989660025 0.054227602
C 0.671472013 0.778729975 0.136758
C 0.731413007 0.853280008 0.080991901
C 0.737809002 0.94569701 0.0454881
C 0.981801987 0.987910986 0.108295001
C 0.517194986 0.81428802 0.203990996
C 0.619491994 0.803112984 0.225712001
C 0.988386989 0.789155006 0.017455701
C 0.90425998 0.935728014 0.290093988
C 0.816919982 0.781767011 0.312970996
C 0.947431028 0.944516003 0.477798998
C 0.857735991 0.863279998 0.351256013
C 0.634938002 0.783529997 0.323581994
C 0.540430009 0.806407988 0.369235009
C 0.857164979 0.910394013 0.442057997
C 0.511447012 0.829352021 0.463059008
C 0.568848014 0.787002027 0.528683007
C 0.789339006 0.931230009 0.514164984
C 0.734831989 0.854773998 0.564258993
C 0.800433993 0.77956301 0.588845015
C 0.635210991 0.840928972 0.593576014
C 0.600090981 0.83701098 0.683936
C 0.984601021 0.781575978 0.74425298
C 0.877013981 0.748682022 0.620949984
C 0.801407993 0.939719021 0.832149029
C 0.781333029 0.841848016 0.83595401
C 0.955501974 0.870853007 0.977162004
C 0.608322978 0.850413024 0.874287009
C 0.895080984 0.976922989 0.841103017
C 0.976092994 0.907550991 0.880819976
C 0.567336023 0.841848016 0.77937901
C 0.704761028 0.797708988 0.870078981
C 0.637494981 0.949146986 0.895087004
C 0.558193028 0.796559989 0.956833005
C 0.988753974 0.834779024 0.811227977
C 0.653524995 0.986370027 0.996110022
C 0.699931026 0.987471998 0.833603024
K_POINTS gamma
CELL_PARAMETERS angstrom
14.2258815765 0.0 0.0
0.0 14.2258815765 0.0
0.0 0.0 14.2258815765
