 &control
    calculation='scf',
    pseudo_dir='/u/home/n/nbriana/qe-7.3.1/XSpectra/test/pseudo/',
    outdir='/u/home/n/nbriana/qe-7.3.1/XSpectra/test/results/tmp/',
    prefix='aC3',
 /
 &system
    ibrav=0,
    nat=216.0,
    tot_charge=1,
    ntyp=2,
    ecutwfc=20,
 /
 &electrons
    scf_must_converge=.false.,
/
ATOMIC_SPECIES
C 12.011 C_PBE_TM_2pj.UPF
C_h 12.011 Ch_PBE_TM_2pj.UPF
ATOMIC_POSITIONS crystal
C_h 0.469855011 0.00754382 0.480946004
C 0.137669995 0.129277006 0.0440192
C 0.448868006 0.0536796 0.120986
C 0.100288004 0.178819001 0.119088002
C 0.00974993 0.150815994 0.149878994
C 0.391386986 0.099791303 0.339139014
C 0.364255995 0.191572994 0.293186009
C 0.494652003 0.099150904 0.339733988
C 0.336080998 0.0137077 0.359708011
C 0.444068998 0.218593001 0.242991
C 0.439862013 0.166719005 0.533437014
C 0.324571013 0.051873401 0.565523028
C 0.417704999 0.074538097 0.527435005
C 0.249231994 0.214295998 0.598137021
C 0.255825013 0.117197998 0.609327972
C 0.179410994 0.060300998 0.611922979
C 0.100847997 0.0223314 0.575800002
C 0.0186687 0.159382999 0.738394976
C 0.0086468 0.056577899 0.589688003
C 0.444779009 0.246847004 0.575869024
C 0.022902099 0.236485004 0.670224011
C 0.107979998 0.083498098 0.972707987
C 0.39051801 0.179193005 0.855813026
C 0.054362301 0.068494603 0.889899015
C 0.385650992 0.093176499 0.868113995
C 0.141340002 0.207692996 0.838662028
C 0.070555203 0.143364996 0.820222974
C 0.349844009 0.00595335 0.856911004
C 0.226005003 0.308470011 0.168909997
C 0.060749602 0.49178201 0.180160001
C 0.312352002 0.403548002 0.038834602
C 0.046960302 0.301714987 0.204078004
C 0.024724999 0.399919003 0.223819003
C 0.267246991 0.349173009 0.093265802
C 0.127717003 0.265498996 0.167142004
C 0.285504997 0.255661994 0.323953986
C 0.261848986 0.332886994 0.262890011
C 0.230103999 0.42216 0.287187994
C 0.258073002 0.261447996 0.415805995
C 0.146455005 0.459993988 0.657608986
C 0.232694 0.309482008 0.595758021
C 0.448031008 0.290145993 0.656059027
C 0.225747004 0.389692992 0.657684982
C 0.0309103 0.328393012 0.666000009
C 0.055845201 0.421371013 0.678956985
C 0.268588006 0.365390003 0.73804301
C 0.240882993 0.267868996 0.504689991
C 0.292800993 0.307705998 0.810782015
C 0.455953985 0.303671002 0.751398981
C 0.348848999 0.473250002 0.989410996
C 0.385322005 0.268155992 0.818202019
C 0.211816996 0.257665008 0.84987402
C 0.998182237 0.505743027 0.825706005
C 0.120697998 0.543264985 0.238315001
C 0.38359201 0.696290016 0.226934999
C 0.0605275 0.64090699 0.122019999
C 0.111167997 0.642952025 0.209695995
C 0.033008501 0.722142994 0.074052803
C 0.031952299 0.545984983 0.097338803
C 0.382283986 0.740369022 0.141253993
C 0.315095991 0.743700027 0.068309501
C 0.378205001 0.586555004 0.464940995
C 0.329861999 0.663591981 0.308118999
C 0.151169002 0.713285029 0.277485996
C 0.389591008 0.61767 0.372382998
C 0.480542004 0.612502992 0.323569
C 0.243200004 0.71470201 0.319619
C 0.470205992 0.699880004 0.267518997
C 0.182157993 0.494217992 0.306968987
C 0.087009102 0.610087991 0.596041024
C 0.34118399 0.584293008 0.644945025
C 0.364971012 0.567876995 0.550557017
C 0.263915002 0.683766007 0.745656013
C 0.161162004 0.55934298 0.641306996
C 0.243153006 0.609251976 0.677538991
C 0.012466 0.67938298 0.610298991
C 0.394389987 0.587597013 0.732733011
C 0.0151968 0.630864024 0.524989009
C 0.066446699 0.630384028 0.898266017
C 0.341524005 0.636337996 0.907115996
C 0.110711001 0.708351016 0.876255989
C 0.357870996 0.548205972 0.941173017
C 0.343374997 0.642298996 0.800013006
C 0.314426005 0.711992025 0.971071005
C 0.021052999 0.543097019 0.909382999
C 0.213786006 0.906808019 0.093594499
C 0.290452003 0.96736002 0.087283999
C 0.469422996 0.79103601 0.116586998
C 0.043682698 0.943387985 0.183666006
C 0.145223007 0.935778975 0.171162993
C 0.243728995 0.817246974 0.045591701
C 0.199398994 0.983794987 0.240516007
C 0.368041992 0.017269969 0.102737002
C 0.498335987 0.805306017 0.0271491
C 0.057831801 0.868676007 0.344264001
C 0.126497 0.797053993 0.333608001
C 0.270785004 0.869566023 0.42968601
C 0.218907997 0.803040028 0.374437004
C 0.355526 0.927393019 0.416413009
C 0.045311499 0.917325974 0.444840014
C 0.479452014 0.799548984 0.291188985
C 0.436066002 0.904286027 0.486671001
C 0.00683146 0.912506998 0.269421011
C 0.258623004 0.006229997 0.300312012
C 0.217776 0.917308986 0.501249015
C 0.294458985 0.961399019 0.56548202
C 0.381044 0.896109998 0.581946015
C 0.387336999 0.858766973 0.675255001
C 0.482187986 0.849969029 0.712010026
C 0.122377999 0.945438981 0.504023015
C 0.240272 0.781159997 0.772374988
C 0.329214007 0.93185401 0.815207005
C 0.240265995 0.783647001 0.949750006
C 0.187420994 0.770955026 0.865483999
C 0.306798995 0.858317971 0.754823983
C 0.583194971 0.148684993 0.177626997
C 0.65832603 0.205643997 0.140771002
C 0.841108978 0.179909006 0.031014699
C 0.85650897 0.094681703 0.066689402
C 0.544215977 0.074760497 0.113490999
C 0.949962974 0.081658803 0.112222001
C 0.599762976 0.0279503 0.0502542
C 0.971882999 0.236891001 0.196199
C 0.872635007 0.233629003 0.248524994
C 0.810406983 0.183243006 0.308274001
C 0.856750011 0.00680573 0.282456011
C 0.819405973 0.086419404 0.292293996
C 0.525695026 0.164043993 0.258670986
C 0.526232004 0.0464749 0.412721992
C 0.749237001 0.233610004 0.360323995
C 0.996969998 0.138456002 0.642764986
C 0.746190012 0.111199997 0.694562972
C 0.931977987 0.00425312 0.551805973
C 0.78451997 0.066333897 0.623548985
C 0.83216399 0.00673199 0.567084014
C 0.68530798 0.165023997 0.756498992
C 0.701716006 0.070565604 0.781314015
C 0.98446399 0.000568929 0.874671996
C 0.872417986 0.266725987 0.162254006
C 0.919184983 0.435108989 0.016516499
C 0.820712984 0.272846013 0.070276096
C 0.858627975 0.369033992 0.028498501
C 0.720633984 0.255661994 0.105835997
C 0.671155989 0.358711988 0.46350199
C 0.911819994 0.43710199 0.364165008
C 0.694207013 0.291226 0.403605014
C 0.967004001 0.419609994 0.296900988
C 0.980642021 0.475870997 0.738409996
C 0.651560009 0.433421999 0.509075999
C 0.905279994 0.508414984 0.682565987
C 0.554708004 0.296249002 0.77037102
C 0.64417398 0.348383009 0.75840199
C 0.688624024 0.429174989 0.745846987
C 0.637372971 0.248565003 0.765097022
C 0.637418985 0.614503026 0.144927993
C 0.618286014 0.586588979 0.226787999
C 0.641129017 0.686923981 0.076587297
C 0.988906026 0.509976029 0.0115056
C 0.754576981 0.692281008 0.424755007
C 0.559167027 0.56782198 0.29765299
C 0.793842971 0.625248015 0.469123989
C 0.72013402 0.754194021 0.358888
C 0.872449994 0.479959995 0.434291989
C 0.616176009 0.511812985 0.537872016
C 0.570088029 0.689732015 0.533068001
C 0.854376018 0.525977015 0.597868979
C 0.81042397 0.529102027 0.692207992
C 0.58059001 0.597755015 0.541521013
C 0.951205015 0.724187016 0.674618006
C 0.84108001 0.543483019 0.497918993
C 0.748486996 0.62875098 0.907835007
C 0.687427998 0.706054986 0.908362985
C 0.762224972 0.550270975 0.848564982
C 0.617769003 0.706148982 0.982731998
C 0.826388001 0.567875981 0.924327016
C 0.740755975 0.511574984 0.761238992
C 0.786356986 0.780116975 0.137487993
C 0.914245009 0.938143015 0.0516636
C 0.834704995 0.764750004 0.216497004
C 0.829464018 0.994019985 0.052440099
C 0.677956998 0.782975972 0.124724001
C 0.73901099 0.848339021 0.074921697
C 0.744732022 0.941905022 0.039258499
C 0.97585398 0.988205016 0.118435003
C 0.524371982 0.812106013 0.200911
C 0.623933971 0.812050998 0.214883998
C 0.992012978 0.790534019 0.0359326
C 0.909322977 0.929915011 0.296974003
C 0.819822013 0.781150997 0.308526009
C 0.947145998 0.937008977 0.482050002
C 0.856678009 0.853748024 0.357427001
C 0.632983983 0.789164007 0.321319014
C 0.543937981 0.816080987 0.367480993
C 0.85897398 0.892322004 0.453637987
C 0.514998972 0.832084 0.462767005
C 0.568817973 0.786449015 0.529480994
C 0.790022016 0.928622007 0.523487985
C 0.724682987 0.860476971 0.580707014
C 0.792338014 0.795287013 0.611770988
C 0.627313018 0.842293024 0.59946698
C 0.57892102 0.840430975 0.684924006
C 0.860190988 0.752524972 0.642611027
C 0.807165027 0.936240971 0.835200012
C 0.779264987 0.843397975 0.835866988
C 0.952323973 0.866346002 0.987049997
C 0.604229987 0.846181989 0.87361598
C 0.897414029 0.970716 0.849713981
C 0.965986013 0.891200006 0.890097022
C 0.550776005 0.834510982 0.783303976
C 0.70598501 0.796691 0.867187023
C 0.637973011 0.94867301 0.89179498
C 0.56101501 0.792300999 0.957153022
C 0.987250984 0.817583978 0.826466024
C 0.65141499 0.977693021 0.992729008
C 0.70195502 0.987600029 0.828902006
C 0.986679018 0.76493597 0.756784022
K_POINTS gamma
CELL_PARAMETERS angstrom
14.2258815765 0.0 0.0
0.0 14.2258815765 0.0
0.0 0.0 14.2258815765
